500          91500          88500          93500          101000          11500          42000          72500          123000          183500          224000          304500          385000          47500          01000          11500          42000          72500          113000          163500          224000          294500          405000          49500          01000          01500          12000          22500          43000          53500          84000          10500          01000          01500          12000          22500          43000          63500          84000          114500          145000          17500          0500          01000          01500          12000          22500          4500          7393991000          6736001500          9436002000          11078002500          13986003000          8782003500          12661004000          15636004500          16474005000          1687800500          554576001000          4160039001500          16678965012000          30909957012500          72392973003000          140393027003500          192797450004000          25639047501500          19309991000          32534001500          55686002000          96414992500          217853003000          207918993500          48826014000          60710004500          81059005000          10193801500          25091001000          34260001500          56534002000          108213002500          146172003000          225737003500          47596004000          60632004500          76029005000          9463800500          01000          01500          12000          22500          33000          53500          7